c is-unsat
p cnf 12 80
-8 -7 12 0
3 -9 -11 0
-9 -4 -7 0
-6 2 4 0
-3 -1 -10 0
-5 -1 -3 0
6 -3 -1 0
-6 12 -1 0
-11 -10 9 0
-3 4 5 0
-7 3 -6 0
-11 -5 8 0
-4 -12 11 0
-9 2 -6 0
-11 4 -5 0
-1 12 -10 0
8 12 -7 0
9 -7 3 0
-12 4 11 0
2 -4 -8 0
-9 -5 -1 0
-3 -6 -9 0
-2 5 -8 0
-5 -11 -6 0
-3 -9 -7 0
-8 -10 -11 0
-2 3 -5 0
-9 -2 -11 0
-8 5 -12 0
-4 8 -3 0
-8 -10 3 0
2 9 5 0
12 4 -6 0
6 3 10 0
6 -3 2 0
2 -4 1 0
3 -9 8 0
-6 -2 12 0
-9 11 -12 0
-10 -11 6 0
2 -5 -8 0
2 -4 -8 0
9 -5 7 0
-2 -10 -7 0
-10 -4 -11 0
6 8 -12 0
5 -1 -10 0
-8 7 -4 0
-12 11 -7 0
-12 2 -4 0
1 -11 -4 0
-9 2 -6 0
-2 12 -4 0
4 -3 -7 0
3 -5 11 0
6 -9 8 0
-6 -2 -11 0
-7 10 -6 0
-5 -2 -12 0
6 5 -1 0
7 -3 4 0
6 -5 -12 0
5 -2 -6 0
11 10 -7 0
6 -5 7 0
12 7 -1 0
-8 4 -9 0
8 -12 -4 0
-11 5 3 0
-6 1 -3 0
-12 -2 11 0
-6 4 -5 0
1 -12 -4 0
-8 -6 2 0
-3 -7 -9 0
-10 9 -2 0
-12 8 -11 0
-12 -3 -11 0
-11 -2 3 0
9 2 -5 0
